p edge 1677 1617
e 1 2
e 1 3
e 1 4
e 1 5
e 1 6
e 1 7
e 1 8
e 1 9
e 1 10
e 1 11
e 1 12
e 1 13
e 14 15
e 14 16
e 14 17
e 14 18
e 14 19
e 14 20
e 14 21
e 14 22
e 14 23
e 14 24
e 14 25
e 14 26
e 14 27
e 14 28
e 14 29
e 14 30
e 14 31
e 14 32
e 14 33
e 14 34
e 14 35
e 14 36
e 14 37
e 14 38
e 14 39
e 14 40
e 14 41
e 14 42
e 14 43
e 14 44
e 14 45
e 14 46
e 14 47
e 14 48
e 14 49
e 14 50
e 14 51
e 14 52
e 14 53
e 14 54
e 14 55
e 14 56
e 14 57
e 14 58
e 14 59
e 14 60
e 14 61
e 62 63
e 62 64
e 62 65
e 62 66
e 62 67
e 62 68
e 62 69
e 62 70
e 62 71
e 62 72
e 62 73
e 62 74
e 62 75
e 62 76
e 77 78
e 77 79
e 77 80
e 77 81
e 77 82
e 77 83
e 77 84
e 77 85
e 77 86
e 77 87
e 77 88
e 77 89
e 77 90
e 77 91
e 77 92
e 77 93
e 77 94
e 77 95
e 77 96
e 77 97
e 77 98
e 77 99
e 77 100
e 77 101
e 77 102
e 77 103
e 77 104
e 77 105
e 77 106
e 77 107
e 77 108
e 77 109
e 77 110
e 77 111
e 77 112
e 77 113
e 77 114
e 77 115
e 77 116
e 117 118
e 117 119
e 117 120
e 117 121
e 117 122
e 117 123
e 117 124
e 117 125
e 117 126
e 117 127
e 117 128
e 117 129
e 117 130
e 117 131
e 117 132
e 117 133
e 117 134
e 117 135
e 117 136
e 117 137
e 117 138
e 117 139
e 117 140
e 117 141
e 117 142
e 117 143
e 117 144
e 117 145
e 117 146
e 147 148
e 147 149
e 147 150
e 147 151
e 147 152
e 147 153
e 147 154
e 147 155
e 147 156
e 147 157
e 147 158
e 147 159
e 147 160
e 147 161
e 147 162
e 147 163
e 147 164
e 147 165
e 166 167
e 166 168
e 166 169
e 166 170
e 166 171
e 166 172
e 166 173
e 166 174
e 166 175
e 166 176
e 166 177
e 166 178
e 166 179
e 166 180
e 166 181
e 166 182
e 166 183
e 166 184
e 166 185
e 166 186
e 166 187
e 166 188
e 166 189
e 166 190
e 166 191
e 192 193
e 192 194
e 192 195
e 192 196
e 192 197
e 192 198
e 192 199
e 192 200
e 192 201
e 192 202
e 192 203
e 192 204
e 192 205
e 192 206
e 192 207
e 192 208
e 209 210
e 209 211
e 209 212
e 209 213
e 209 214
e 209 215
e 209 216
e 209 217
e 209 218
e 209 219
e 209 220
e 209 221
e 209 222
e 209 223
e 209 224
e 209 225
e 209 226
e 209 227
e 209 228
e 209 229
e 209 230
e 209 231
e 209 232
e 209 233
e 209 234
e 209 235
e 209 236
e 209 237
e 209 238
e 209 239
e 209 240
e 209 241
e 209 242
e 209 243
e 209 244
e 209 245
e 209 246
e 247 248
e 247 249
e 247 250
e 247 251
e 247 252
e 247 253
e 247 254
e 247 255
e 247 256
e 247 257
e 247 258
e 247 259
e 247 260
e 247 261
e 247 262
e 247 263
e 247 264
e 247 265
e 247 266
e 247 267
e 247 268
e 247 269
e 247 270
e 247 271
e 247 272
e 247 273
e 247 274
e 275 276
e 275 277
e 275 278
e 275 279
e 275 280
e 275 281
e 275 282
e 275 283
e 275 284
e 275 285
e 275 286
e 275 287
e 275 288
e 275 289
e 275 290
e 275 291
e 275 292
e 275 293
e 275 294
e 275 295
e 275 296
e 275 297
e 275 298
e 275 299
e 275 300
e 275 301
e 275 302
e 275 303
e 275 304
e 275 305
e 275 306
e 275 307
e 275 308
e 275 309
e 310 311
e 310 312
e 310 313
e 310 314
e 310 315
e 310 316
e 310 317
e 310 318
e 310 319
e 310 320
e 310 321
e 310 322
e 323 324
e 323 325
e 323 326
e 323 327
e 323 328
e 323 329
e 323 330
e 323 331
e 323 332
e 323 333
e 323 334
e 323 335
e 336 337
e 336 338
e 336 339
e 336 340
e 336 341
e 336 342
e 336 343
e 336 344
e 336 345
e 336 346
e 336 347
e 336 348
e 336 349
e 336 350
e 336 351
e 336 352
e 336 353
e 336 354
e 336 355
e 336 356
e 336 357
e 336 358
e 336 359
e 336 360
e 336 361
e 336 362
e 336 363
e 336 364
e 336 365
e 336 366
e 336 367
e 336 368
e 336 369
e 336 370
e 336 371
e 336 372
e 336 373
e 336 374
e 336 375
e 336 376
e 336 377
e 336 378
e 336 379
e 336 380
e 336 381
e 336 382
e 336 383
e 336 384
e 336 385
e 336 386
e 387 388
e 387 389
e 387 390
e 387 391
e 387 392
e 387 393
e 387 394
e 387 395
e 387 396
e 387 397
e 387 398
e 387 399
e 387 400
e 387 401
e 387 402
e 387 403
e 387 404
e 387 405
e 387 406
e 387 407
e 387 408
e 387 409
e 387 410
e 387 411
e 412 413
e 412 414
e 412 415
e 412 416
e 412 417
e 412 418
e 412 419
e 412 420
e 412 421
e 412 422
e 412 423
e 412 424
e 412 425
e 412 426
e 412 427
e 412 428
e 412 429
e 412 430
e 412 431
e 412 432
e 412 433
e 412 434
e 412 435
e 412 436
e 412 437
e 412 438
e 412 439
e 412 440
e 412 441
e 442 443
e 442 444
e 442 445
e 442 446
e 442 447
e 442 448
e 442 449
e 442 450
e 442 451
e 442 452
e 442 453
e 442 454
e 442 455
e 442 456
e 442 457
e 442 458
e 442 459
e 442 460
e 442 461
e 462 463
e 462 464
e 462 465
e 462 466
e 462 467
e 462 468
e 462 469
e 462 470
e 462 471
e 462 472
e 462 473
e 462 474
e 462 475
e 476 477
e 476 478
e 476 479
e 476 480
e 476 481
e 476 482
e 476 483
e 476 484
e 476 485
e 476 486
e 476 487
e 476 488
e 476 489
e 476 490
e 476 491
e 476 492
e 476 493
e 476 494
e 476 495
e 476 496
e 476 497
e 476 498
e 476 499
e 500 501
e 500 502
e 500 503
e 500 504
e 500 505
e 500 506
e 500 507
e 500 508
e 500 509
e 500 510
e 500 511
e 500 512
e 500 513
e 500 514
e 500 515
e 500 516
e 500 517
e 500 518
e 500 519
e 500 520
e 500 521
e 500 522
e 500 523
e 500 524
e 500 525
e 500 526
e 500 527
e 500 528
e 500 529
e 500 530
e 500 531
e 500 532
e 500 533
e 500 534
e 500 535
e 536 537
e 536 538
e 536 539
e 536 540
e 536 541
e 536 542
e 536 543
e 536 544
e 536 545
e 536 546
e 536 547
e 536 548
e 536 549
e 536 550
e 536 551
e 536 552
e 536 553
e 536 554
e 536 555
e 536 556
e 536 557
e 536 558
e 536 559
e 536 560
e 561 562
e 561 563
e 561 564
e 561 565
e 561 566
e 561 567
e 561 568
e 561 569
e 561 570
e 561 571
e 561 572
e 561 573
e 561 574
e 561 575
e 561 576
e 561 577
e 578 579
e 578 580
e 578 581
e 578 582
e 578 583
e 578 584
e 578 585
e 578 586
e 578 587
e 578 588
e 578 589
e 578 590
e 578 591
e 578 592
e 578 593
e 578 594
e 578 595
e 578 596
e 578 597
e 598 599
e 598 600
e 598 601
e 598 602
e 598 603
e 598 604
e 598 605
e 598 606
e 598 607
e 598 608
e 598 609
e 598 610
e 598 611
e 598 612
e 598 613
e 598 614
e 598 615
e 598 616
e 598 617
e 598 618
e 598 619
e 598 620
e 598 621
e 598 622
e 598 623
e 598 624
e 598 625
e 598 626
e 598 627
e 598 628
e 598 629
e 630 631
e 630 632
e 630 633
e 630 634
e 630 635
e 630 636
e 630 637
e 630 638
e 630 639
e 630 640
e 630 641
e 630 642
e 630 643
e 630 644
e 630 645
e 630 646
e 630 647
e 630 648
e 630 649
e 630 650
e 651 652
e 651 653
e 651 654
e 651 655
e 651 656
e 651 657
e 651 658
e 651 659
e 651 660
e 651 661
e 651 662
e 651 663
e 651 664
e 651 665
e 651 666
e 651 667
e 651 668
e 651 669
e 651 670
e 651 671
e 651 672
e 673 674
e 673 675
e 673 676
e 673 677
e 673 678
e 673 679
e 673 680
e 673 681
e 673 682
e 673 683
e 673 684
e 673 685
e 673 686
e 673 687
e 673 688
e 673 689
e 673 690
e 673 691
e 673 692
e 673 693
e 673 694
e 673 695
e 673 696
e 673 697
e 673 698
e 673 699
e 673 700
e 673 701
e 673 702
e 673 703
e 673 704
e 673 705
e 673 706
e 673 707
e 673 708
e 673 709
e 673 710
e 673 711
e 712 713
e 712 714
e 712 715
e 712 716
e 712 717
e 712 718
e 712 719
e 712 720
e 712 721
e 712 722
e 712 723
e 712 724
e 712 725
e 712 726
e 712 727
e 712 728
e 712 729
e 712 730
e 712 731
e 712 732
e 712 733
e 712 734
e 712 735
e 712 736
e 712 737
e 712 738
e 739 740
e 739 741
e 739 742
e 739 743
e 739 744
e 739 745
e 739 746
e 739 747
e 739 748
e 739 749
e 739 750
e 739 751
e 739 752
e 739 753
e 739 754
e 739 755
e 739 756
e 739 757
e 739 758
e 739 759
e 739 760
e 739 761
e 739 762
e 739 763
e 739 764
e 739 765
e 739 766
e 739 767
e 739 768
e 739 769
e 739 770
e 739 771
e 739 772
e 773 774
e 773 775
e 773 776
e 773 777
e 773 778
e 773 779
e 773 780
e 773 781
e 773 782
e 773 783
e 773 784
e 773 785
e 773 786
e 773 787
e 773 788
e 773 789
e 773 790
e 773 791
e 773 792
e 773 793
e 773 794
e 773 795
e 773 796
e 773 797
e 798 799
e 798 800
e 798 801
e 798 802
e 798 803
e 798 804
e 798 805
e 798 806
e 798 807
e 798 808
e 798 809
e 798 810
e 798 811
e 798 812
e 798 813
e 798 814
e 798 815
e 816 817
e 816 818
e 816 819
e 816 820
e 816 821
e 816 822
e 816 823
e 816 824
e 816 825
e 816 826
e 816 827
e 816 828
e 816 829
e 816 830
e 816 831
e 816 832
e 816 833
e 816 834
e 816 835
e 816 836
e 816 837
e 816 838
e 816 839
e 816 840
e 816 841
e 816 842
e 816 843
e 816 844
e 816 845
e 816 846
e 816 847
e 816 848
e 816 849
e 816 850
e 816 851
e 816 852
e 816 853
e 816 854
e 816 855
e 816 856
e 816 857
e 816 858
e 859 860
e 859 861
e 859 862
e 859 863
e 859 864
e 859 865
e 859 866
e 859 867
e 859 868
e 859 869
e 859 870
e 859 871
e 859 872
e 859 873
e 859 874
e 859 875
e 859 876
e 859 877
e 859 878
e 859 879
e 859 880
e 859 881
e 859 882
e 859 883
e 859 884
e 859 885
e 886 887
e 886 888
e 886 889
e 886 890
e 886 891
e 886 892
e 886 893
e 886 894
e 886 895
e 886 896
e 886 897
e 886 898
e 886 899
e 886 900
e 886 901
e 886 902
e 886 903
e 886 904
e 886 905
e 906 907
e 906 908
e 906 909
e 906 910
e 906 911
e 906 912
e 906 913
e 906 914
e 906 915
e 906 916
e 906 917
e 906 918
e 906 919
e 906 920
e 906 921
e 906 922
e 906 923
e 906 924
e 906 925
e 906 926
e 906 927
e 906 928
e 906 929
e 906 930
e 906 931
e 906 932
e 906 933
e 906 934
e 906 935
e 906 936
e 906 937
e 906 938
e 906 939
e 906 940
e 906 941
e 906 942
e 906 943
e 906 944
e 906 945
e 906 946
e 906 947
e 906 948
e 906 949
e 906 950
e 906 951
e 906 952
e 906 953
e 954 955
e 954 956
e 954 957
e 954 958
e 954 959
e 954 960
e 954 961
e 954 962
e 954 963
e 954 964
e 954 965
e 954 966
e 954 967
e 954 968
e 954 969
e 954 970
e 954 971
e 954 972
e 954 973
e 954 974
e 975 976
e 975 977
e 975 978
e 975 979
e 975 980
e 975 981
e 975 982
e 975 983
e 975 984
e 975 985
e 975 986
e 975 987
e 975 988
e 975 989
e 975 990
e 975 991
e 975 992
e 975 993
e 975 994
e 975 995
e 975 996
e 997 998
e 997 999
e 997 1000
e 997 1001
e 997 1002
e 997 1003
e 997 1004
e 997 1005
e 997 1006
e 997 1007
e 997 1008
e 997 1009
e 997 1010
e 997 1011
e 997 1012
e 997 1013
e 997 1014
e 997 1015
e 997 1016
e 997 1017
e 997 1018
e 997 1019
e 997 1020
e 997 1021
e 997 1022
e 997 1023
e 997 1024
e 997 1025
e 1026 1027
e 1026 1028
e 1026 1029
e 1026 1030
e 1026 1031
e 1026 1032
e 1026 1033
e 1026 1034
e 1026 1035
e 1026 1036
e 1026 1037
e 1026 1038
e 1026 1039
e 1026 1040
e 1026 1041
e 1026 1042
e 1026 1043
e 1026 1044
e 1026 1045
e 1026 1046
e 1026 1047
e 1026 1048
e 1026 1049
e 1026 1050
e 1026 1051
e 1026 1052
e 1026 1053
e 1026 1054
e 1055 1056
e 1055 1057
e 1055 1058
e 1055 1059
e 1055 1060
e 1055 1061
e 1055 1062
e 1055 1063
e 1055 1064
e 1055 1065
e 1055 1066
e 1055 1067
e 1055 1068
e 1055 1069
e 1055 1070
e 1055 1071
e 1055 1072
e 1055 1073
e 1055 1074
e 1055 1075
e 1055 1076
e 1055 1077
e 1055 1078
e 1055 1079
e 1055 1080
e 1055 1081
e 1055 1082
e 1055 1083
e 1055 1084
e 1055 1085
e 1086 1087
e 1086 1088
e 1086 1089
e 1086 1090
e 1086 1091
e 1086 1092
e 1086 1093
e 1086 1094
e 1086 1095
e 1086 1096
e 1086 1097
e 1086 1098
e 1086 1099
e 1086 1100
e 1086 1101
e 1086 1102
e 1086 1103
e 1086 1104
e 1086 1105
e 1086 1106
e 1086 1107
e 1086 1108
e 1086 1109
e 1086 1110
e 1086 1111
e 1112 1113
e 1112 1114
e 1112 1115
e 1112 1116
e 1112 1117
e 1112 1118
e 1112 1119
e 1112 1120
e 1112 1121
e 1112 1122
e 1112 1123
e 1112 1124
e 1112 1125
e 1112 1126
e 1112 1127
e 1112 1128
e 1112 1129
e 1112 1130
e 1112 1131
e 1112 1132
e 1112 1133
e 1112 1134
e 1112 1135
e 1112 1136
e 1112 1137
e 1138 1139
e 1138 1140
e 1138 1141
e 1138 1142
e 1138 1143
e 1138 1144
e 1138 1145
e 1138 1146
e 1138 1147
e 1138 1148
e 1138 1149
e 1138 1150
e 1138 1151
e 1138 1152
e 1138 1153
e 1138 1154
e 1138 1155
e 1138 1156
e 1138 1157
e 1138 1158
e 1138 1159
e 1138 1160
e 1138 1161
e 1138 1162
e 1138 1163
e 1138 1164
e 1138 1165
e 1138 1166
e 1138 1167
e 1138 1168
e 1138 1169
e 1138 1170
e 1138 1171
e 1138 1172
e 1138 1173
e 1138 1174
e 1138 1175
e 1138 1176
e 1138 1177
e 1138 1178
e 1138 1179
e 1138 1180
e 1138 1181
e 1138 1182
e 1138 1183
e 1138 1184
e 1138 1185
e 1138 1186
e 1187 1188
e 1187 1189
e 1187 1190
e 1187 1191
e 1187 1192
e 1187 1193
e 1187 1194
e 1187 1195
e 1187 1196
e 1187 1197
e 1187 1198
e 1199 1200
e 1199 1201
e 1199 1202
e 1199 1203
e 1199 1204
e 1199 1205
e 1199 1206
e 1199 1207
e 1199 1208
e 1199 1209
e 1199 1210
e 1199 1211
e 1199 1212
e 1199 1213
e 1199 1214
e 1199 1215
e 1199 1216
e 1199 1217
e 1199 1218
e 1199 1219
e 1199 1220
e 1199 1221
e 1199 1222
e 1199 1223
e 1199 1224
e 1199 1225
e 1199 1226
e 1199 1227
e 1199 1228
e 1199 1229
e 1199 1230
e 1199 1231
e 1199 1232
e 1199 1233
e 1199 1234
e 1199 1235
e 1199 1236
e 1199 1237
e 1199 1238
e 1199 1239
e 1199 1240
e 1199 1241
e 1199 1242
e 1243 1244
e 1243 1245
e 1243 1246
e 1243 1247
e 1243 1248
e 1243 1249
e 1243 1250
e 1243 1251
e 1243 1252
e 1243 1253
e 1243 1254
e 1243 1255
e 1256 1257
e 1256 1258
e 1256 1259
e 1256 1260
e 1256 1261
e 1256 1262
e 1256 1263
e 1256 1264
e 1256 1265
e 1256 1266
e 1256 1267
e 1268 1269
e 1268 1270
e 1268 1271
e 1268 1272
e 1268 1273
e 1268 1274
e 1268 1275
e 1268 1276
e 1268 1277
e 1268 1278
e 1268 1279
e 1268 1280
e 1268 1281
e 1268 1282
e 1268 1283
e 1268 1284
e 1268 1285
e 1268 1286
e 1268 1287
e 1268 1288
e 1268 1289
e 1268 1290
e 1268 1291
e 1268 1292
e 1268 1293
e 1268 1294
e 1268 1295
e 1268 1296
e 1268 1297
e 1268 1298
e 1268 1299
e 1268 1300
e 1268 1301
e 1268 1302
e 1268 1303
e 1268 1304
e 1268 1305
e 1268 1306
e 1268 1307
e 1268 1308
e 1309 1310
e 1309 1311
e 1309 1312
e 1309 1313
e 1309 1314
e 1309 1315
e 1309 1316
e 1309 1317
e 1309 1318
e 1309 1319
e 1309 1320
e 1309 1321
e 1309 1322
e 1309 1323
e 1309 1324
e 1309 1325
e 1309 1326
e 1309 1327
e 1309 1328
e 1309 1329
e 1309 1330
e 1309 1331
e 1309 1332
e 1309 1333
e 1309 1334
e 1309 1335
e 1309 1336
e 1309 1337
e 1309 1338
e 1309 1339
e 1309 1340
e 1309 1341
e 1309 1342
e 1309 1343
e 1309 1344
e 1309 1345
e 1309 1346
e 1309 1347
e 1309 1348
e 1309 1349
e 1309 1350
e 1309 1351
e 1309 1352
e 1309 1353
e 1354 1355
e 1354 1356
e 1354 1357
e 1354 1358
e 1354 1359
e 1354 1360
e 1354 1361
e 1354 1362
e 1354 1363
e 1354 1364
e 1354 1365
e 1354 1366
e 1367 1368
e 1367 1369
e 1367 1370
e 1367 1371
e 1367 1372
e 1367 1373
e 1367 1374
e 1367 1375
e 1367 1376
e 1367 1377
e 1367 1378
e 1367 1379
e 1367 1380
e 1367 1381
e 1367 1382
e 1367 1383
e 1367 1384
e 1367 1385
e 1367 1386
e 1367 1387
e 1367 1388
e 1367 1389
e 1367 1390
e 1367 1391
e 1392 1393
e 1392 1394
e 1392 1395
e 1392 1396
e 1392 1397
e 1392 1398
e 1392 1399
e 1392 1400
e 1392 1401
e 1392 1402
e 1392 1403
e 1392 1404
e 1392 1405
e 1392 1406
e 1392 1407
e 1392 1408
e 1392 1409
e 1392 1410
e 1392 1411
e 1392 1412
e 1392 1413
e 1392 1414
e 1392 1415
e 1392 1416
e 1417 1418
e 1417 1419
e 1417 1420
e 1417 1421
e 1417 1422
e 1417 1423
e 1417 1424
e 1417 1425
e 1417 1426
e 1417 1427
e 1417 1428
e 1417 1429
e 1417 1430
e 1417 1431
e 1417 1432
e 1417 1433
e 1417 1434
e 1417 1435
e 1417 1436
e 1417 1437
e 1417 1438
e 1417 1439
e 1417 1440
e 1417 1441
e 1417 1442
e 1417 1443
e 1417 1444
e 1417 1445
e 1417 1446
e 1417 1447
e 1417 1448
e 1417 1449
e 1417 1450
e 1417 1451
e 1417 1452
e 1417 1453
e 1417 1454
e 1417 1455
e 1417 1456
e 1417 1457
e 1417 1458
e 1417 1459
e 1417 1460
e 1417 1461
e 1417 1462
e 1417 1463
e 1464 1465
e 1464 1466
e 1464 1467
e 1464 1468
e 1464 1469
e 1464 1470
e 1464 1471
e 1464 1472
e 1464 1473
e 1464 1474
e 1464 1475
e 1464 1476
e 1464 1477
e 1464 1478
e 1464 1479
e 1464 1480
e 1464 1481
e 1464 1482
e 1464 1483
e 1464 1484
e 1464 1485
e 1464 1486
e 1464 1487
e 1464 1488
e 1464 1489
e 1464 1490
e 1464 1491
e 1464 1492
e 1464 1493
e 1464 1494
e 1464 1495
e 1464 1496
e 1464 1497
e 1464 1498
e 1464 1499
e 1464 1500
e 1501 1502
e 1501 1503
e 1501 1504
e 1501 1505
e 1501 1506
e 1501 1507
e 1501 1508
e 1501 1509
e 1501 1510
e 1501 1511
e 1501 1512
e 1501 1513
e 1501 1514
e 1501 1515
e 1501 1516
e 1501 1517
e 1501 1518
e 1501 1519
e 1501 1520
e 1501 1521
e 1501 1522
e 1501 1523
e 1501 1524
e 1501 1525
e 1501 1526
e 1501 1527
e 1528 1529
e 1528 1530
e 1528 1531
e 1528 1532
e 1528 1533
e 1528 1534
e 1528 1535
e 1528 1536
e 1528 1537
e 1528 1538
e 1528 1539
e 1528 1540
e 1528 1541
e 1528 1542
e 1528 1543
e 1528 1544
e 1528 1545
e 1528 1546
e 1528 1547
e 1528 1548
e 1528 1549
e 1528 1550
e 1528 1551
e 1528 1552
e 1528 1553
e 1528 1554
e 1528 1555
e 1528 1556
e 1528 1557
e 1558 1559
e 1558 1560
e 1558 1561
e 1558 1562
e 1558 1563
e 1558 1564
e 1558 1565
e 1558 1566
e 1558 1567
e 1558 1568
e 1558 1569
e 1558 1570
e 1558 1571
e 1558 1572
e 1558 1573
e 1558 1574
e 1558 1575
e 1576 1577
e 1576 1578
e 1576 1579
e 1576 1580
e 1576 1581
e 1576 1582
e 1576 1583
e 1576 1584
e 1576 1585
e 1576 1586
e 1576 1587
e 1576 1588
e 1576 1589
e 1576 1590
e 1576 1591
e 1576 1592
e 1576 1593
e 1576 1594
e 1576 1595
e 1576 1596
e 1576 1597
e 1576 1598
e 1576 1599
e 1576 1600
e 1576 1601
e 1576 1602
e 1576 1603
e 1576 1604
e 1576 1605
e 1576 1606
e 1576 1607
e 1576 1608
e 1576 1609
e 1576 1610
e 1576 1611
e 1576 1612
e 1576 1613
e 1576 1614
e 1576 1615
e 1576 1616
e 1576 1617
e 1576 1618
e 1576 1619
e 1576 1620
e 1576 1621
e 1576 1622
e 1576 1623
e 1624 1625
e 1624 1626
e 1624 1627
e 1624 1628
e 1624 1629
e 1624 1630
e 1624 1631
e 1624 1632
e 1624 1633
e 1624 1634
e 1624 1635
e 1624 1636
e 1624 1637
e 1624 1638
e 1624 1639
e 1624 1640
e 1641 1642
e 1641 1643
e 1641 1644
e 1641 1645
e 1641 1646
e 1641 1647
e 1641 1648
e 1641 1649
e 1641 1650
e 1641 1651
e 1641 1652
e 1641 1653
e 1641 1654
e 1641 1655
e 1641 1656
e 1641 1657
e 1641 1658
e 1641 1659
e 1641 1660
e 1641 1661
e 1641 1662
e 1641 1663
e 1641 1664
e 1641 1665
e 1641 1666
e 1641 1667
e 1641 1668
e 1641 1669
e 1641 1670
e 1641 1671
e 1641 1672
e 1641 1673
e 1641 1674
e 1641 1675
e 1641 1676
e 1641 1677
